config:eval_tsp="2022-12-07 08:29:20"
config:arch=arch5
config:num_train_worker=6
config:num_sample_worker=2
config:sample_type=khop2
config:root_path=/nvme/samgraph/
config:dataset=papers100M-undir
config:pipeline=False
config:cache_policy=coll_cache_asymm_link
config:cache_percentage=0.3
config:num_epoch=4
config:batch_size=8000
config:num_hidden=256
config:max_sampling_jobs=1
config:max_copying_jobs=1
config:barriered_epoch=1
config:presample_epoch=2
config:omp_thread_num=6
config:unsupervised=False
config:amp=True
config:rolling=0
config:fanout=[25, 10]
config:lr=0.003
config:dropout=0.5
config:single_gpu=False
config:max_num_step=100000
config:validate_configs=False
config:report_acc=0
config:dataset_path=/nvme/samgraph/papers100M-undir
config:torch_thread_num=8
config:train_workers=['cuda:0', 'cuda:1', 'cuda:2', 'cuda:3', 'cuda:4', 'cuda:5']
config:sample_workers=['cuda:6', 'cuda:7']
config:num_fanout=2
config:num_layer=2
config:_run_mode=RunMode.FGNN
config:_log_level=warn
config:_profile_level=3
config:_empty_feat=0
config:_arch=5
config:_sample_type=5
config:_cache_policy=13
test_result:init:input_scale_factor=1.1
Set parameter WLSAccessID
Set parameter WLSSecret
Set parameter LicenseID
Set parameter TimeLimit to value 200
Set parameter MIPGap to value 0.05
Set parameter GomoryPasses to value 0
Set parameter Aggregate to value 0
Set parameter LogFile to value "cppsolver.log"
Set parameter Threads to value 12
Academic license - for non-commercial use only - registered to xiaoniu.sxn@sjtu.edu.cn
Gurobi Optimizer version 9.5.2 build v9.5.2rc0 (linux64)
Thread count: 48 physical cores, 96 logical processors, using up to 12 threads
Academic license - for non-commercial use only - registered to xiaoniu.sxn@sjtu.edu.cn
Optimize a model with 115974 rows, 25432 columns and 286830 nonzeros
Model fingerprint: 0xd5cb2b07
Variable types: 7 continuous, 25425 integer (25425 binary)
Coefficient statistics:
  Matrix range     [2e-04, 2e+03]
  Objective range  [1e+00, 1e+00]
  Bounds range     [1e+00, 1e+00]
  RHS range        [1e+00, 7e+02]
Found heuristic solution: objective 2.000000e+09
Presolve removed 91535 rows and 0 columns
Presolve time: 0.28s
Presolved: 24439 rows, 25432 columns, 98680 nonzeros
Found heuristic solution: objective 29625.323498
Variable types: 7 continuous, 25425 integer (25425 binary)

Root simplex log...

Iteration    Objective       Primal Inf.    Dual Inf.      Time
   26379    6.6122920e+02   4.597220e+03   0.000000e+00      5s
   34624    6.6122421e+02   0.000000e+00   0.000000e+00      7s

Root relaxation: objective 6.612242e+02, 34624 iterations, 6.19 seconds (6.32 work units)
Total elapsed time = 10.13s

    Nodes    |    Current Node    |     Objective Bounds      |     Work
 Expl Unexpl |  Obj  Depth IntInf | Incumbent    BestBd   Gap | It/Node Time

     0     0  661.22421    0 10229 29625.3235  661.22421  97.8%     -   11s
H    0     0                    1911.9666687  661.22421  65.4%     -   11s
H    0     0                    1412.4059120  661.22421  53.2%     -   18s
     0     0  661.22421    0 12228 1412.40591  661.22421  53.2%     -   20s
H    0     0                    1412.2977463  661.22421  53.2%     -   20s
H    0     0                    1411.9677491  661.22421  53.2%     -   20s
     0     0  661.22421    0 12485 1411.96775  661.22421  53.2%     -   22s
H    0     0                    1042.7283446  661.22421  36.6%     -   43s
     0     0  661.22421    0 10389 1042.72834  661.22421  36.6%     -   47s
     0     0  661.22421    0 11702 1042.72834  661.22421  36.6%     -   49s
H    0     0                     987.8388171  661.22421  33.1%     -   59s
H    0     0                     985.6388360  661.22421  32.9%     -   59s
H    0     0                     973.6489392  661.22421  32.1%     -   67s
H    0     0                     972.0815357  661.22421  32.0%     -   67s
     0     0  661.22421    0 10586  972.08154  661.22421  32.0%     -   74s
H    0     0                     960.5316351  661.22421  31.2%     -   75s
H    0     0                     836.5627022  661.22421  21.0%     -   75s
     0     0  661.22421    0 10541  836.56270  661.22421  21.0%     -   80s
H    0     0                     821.8228291  661.22421  19.5%     -   87s
H    0     0                     719.0837135  661.22421  8.05%     -   91s
H    0     2                     718.6437173  661.22421  7.99%     -  100s
     0     2  661.22421    0 10375  718.64372  661.22421  7.99%     -  100s
     3     8  661.22421    2 12390  718.64372  661.22421  7.99% 12989  107s
     7    16  661.22421    3 12393  718.64372  661.22421  7.99%  9766  112s
    15    28  661.22421    4 12557  718.64372  661.22421  7.99%  8146  118s
H   27    40                     715.4763204  661.22421  7.58%  7285  125s
H   31    40                     707.6438119  661.22421  6.56%  7090  125s
H   85   103                     674.3140988  661.22421  1.94%  3521  145s

Cutting planes:
  MIR: 10
  Zero half: 6543

Explored 102 nodes (521261 simplex iterations) in 145.11 seconds (167.65 work units)
Thread count was 12 (of 96 available processors)

Solution count 10: 674.314 707.644 715.476 ... 973.649

Optimal solution found (tolerance 5.00e-02)
Best objective 6.743140988440e+02, best bound 6.612242115223e+02, gap 1.9412%
coll_cache:optimal_local_rate=0.509258,0.529434,0.650465,0.523012,0.646966,0.548103,
coll_cache:optimal_remote_rate=0.490347,0.47017,0.349139,0.476592,0.352638,0.451501,
coll_cache:optimal_cpu_rate=0.000395929,0.000395929,0.000395929,0.000395929,0.000395929,0.000395929,
z=674.314
test_result:init:feat_nbytes=56862697472
test_result:init:cache_nbytes=17057472512
test_result:init:feat_nbytes=56862697472
test_result:init:cache_nbytes=17048629760
test_result:init:feat_nbytes=56862697472
test_result:init:cache_nbytes=17039409664
test_result:init:feat_nbytes=56862697472
test_result:init:cache_nbytes=17058185216
test_result:init:feat_nbytes=56862697472
test_result:init:cache_nbytes=17051498496
test_result:init:feat_nbytes=56862697472
test_result:init:cache_nbytes=17062249472
test_result:init:cache_nbytes=0
test_result:init:cache_nbytes=0
test_result:init:cache_nbytes=0
test_result:init:cache_nbytes=0
test_result:init:cache_nbytes=0
test_result:init:cache_nbytes=0
[Train  Worker 1/6] Started with PID 76509(Tesla V100-SXM2-32GB)
[Train  Worker 1] run train for 4 epochs with 156 steps
[Train  Worker 1] Avg Epoch Time 0.4510 | Train Total Time(Profiler) 0.2378 | Copy Time 0.2099
[Train  Worker 4/6] Started with PID 76518(Tesla V100-SXM2-32GB)
[Train  Worker 4] run train for 4 epochs with 156 steps
[Train  Worker 4] Avg Epoch Time 0.4510 | Train Total Time(Profiler) 0.2350 | Copy Time 0.2129
[Train  Worker 0/6] Started with PID 76507(Tesla V100-SXM2-32GB)
[Train  Worker 0] run train for 4 epochs with 156 steps
Epoch 00000 | Epoch Time 1.9389 | Total Train Time(Profiler) 1.7205 | Copy Time 0.2147
Epoch 00001 | Epoch Time 0.4497 | Total Train Time(Profiler) 0.2753 | Copy Time 0.1713
Epoch 00002 | Epoch Time 0.4454 | Total Train Time(Profiler) 0.2728 | Copy Time 0.1695
Epoch 00003 | Epoch Time 0.4579 | Total Train Time(Profiler) 0.2770 | Copy Time 0.1777
[Train  Worker 0] Avg Epoch Time 0.4510 | Train Total Time(Profiler) 0.2750 | Copy Time 0.1728
[Train  Worker 3/6] Started with PID 76515(Tesla V100-SXM2-32GB)
[Train  Worker 3] run train for 4 epochs with 156 steps
[Train  Worker 3] Avg Epoch Time 0.4510 | Train Total Time(Profiler) 0.2324 | Copy Time 0.2154
[Train  Worker 2/6] Started with PID 76512(Tesla V100-SXM2-32GB)
[Train  Worker 2] run train for 4 epochs with 156 steps
[Train  Worker 2] Avg Epoch Time 0.4510 | Train Total Time(Profiler) 0.2393 | Copy Time 0.2084
[Train  Worker 5/6] Started with PID 76521(Tesla V100-SXM2-32GB)
[Train  Worker 5] run train for 4 epochs with 156 steps
[Train  Worker 5] Avg Epoch Time 0.4510 | Train Total Time(Profiler) 0.2759 | Copy Time 0.1715
[Sample Worker 1/2] Started with PID 76504(Tesla V100-SXM2-32GB)
[Sample Worker 1] run sample for 4 epochs with 78 steps
[Sample Worker 1] Avg Sample Total Time 0.5922 | Sampler Total Time(Profiler) 0.5910
    [Step(average) Profiler Level 1 E3 S77]
        L1  sample           0.006117 | send           0.001483
        L1  recv             0.000000 | copy           0.000000 | convert time 0.000000 | train  0.000000
        L1  feature nbytes 0.00 Bytes | label nbytes 0.00 Bytes
        L1  id nbytes      0.00 Bytes | graph nbytes 0.00 Bytes
        L1  miss nbytes    0.00 Bytes | remote nbytes 0.00 Bytes
        L1  num nodes         1099462 | num samples     1708658
    [Step(average) Profiler Level 2 E3 S77]
        L2  shuffle     0.000493 | core sample  0.002130 | id remap        0.003379
        L2  graph copy  0.000000 | id copy      0.000000 | cache feat copy 0.000000
        L2  last layer sample time 0.000363 | size 72310.799145
    [Step(average) Profiler Level 3 E3 S77]
        L3  khop sample coo  0.001794 | khop sort coo      0.000000 | khop count edge     0.000045 | khop compact edge 0.000249
        L3  walk sample coo  0.000000 | walk topk total    0.000000 | walk topk step1     0.000000 | walk topk step2   0.000000
        L3  walk topk step3  0.000000 | walk topk step4    0.000000 | walk topk step5     0.000000
        L3  walk topk step6  0.000000 | walk topk step7    0.000000
        L3  remap unique     0.000000 | remap populate     0.002759 | remap mapnode       0.000000 | remap mapedge     0.000620
        L3  cache get_index  0.000000 | cache copy_index   0.000000 | cache extract_miss  0.000000
        L3  cache copy_miss  0.000000 | cache combine_miss 0.000000 | cache combine cache 0.000000 | cache combine remote 0.000000
        L3  label extract  0.000000
    [Init Profiler Level 1]
        L1  init     7.4592 | sampler init    15.8825 | trainer init 0.0000
    [Init Profiler Level 2]
        L2  load ds         9.8630 | init queue           5.4604
        L2  presample       5.4275 | build interal ds     2.5871
        L2  build cache     0.0000
    [Init Profiler Level 3]
        L3  load dataset: mmap     7.4543 | copy         2.4087
        L3  dist queue: alloc      0.0019 | pin          5.4585 | push     0.0000
        L3  presample: init        0.3716
        L3  presample: sample      1.7968 | copy         0.1135
        L3  presample: count       2.5027 | sort         0.2149
        L3  presample: reset       0.0006 | get rank     0.0242
        L3  internal: cuda ctx     2.3141 | cuda stream     0.2654
[Sample Worker 0/2] Started with PID 76503(Tesla V100-SXM2-32GB)
[Sample Worker 0] run sample for 4 epochs with 78 steps
[Sample Worker 0] Avg Sample Total Time 0.5938 | Sampler Total Time(Profiler) 0.5928
test_result:sample_time=0.4771
test_result:get_cache_miss_index_time=0.0000
test_result:enqueue_samples_time=0.1157
test_result:epoch_time:sample_total=0.5938
[CUDA] cuda0: usage: 22.34 GB
[SAM] cuda0 data alloc        : 0.00 Bytes
[SAM] cuda0 workspace         : 1.23 GB
[SAM] cuda0 workspace reserve : 620.37 MB
[SAM] cuda0 total             : 1.23 GB
    [Step(average) Profiler Level 1 E3 S155]
        L1  sample           0.000000 | send           0.000000
        L1  recv             0.002671 | copy           0.007637 | convert time 0.000434 | train  0.009150
        L1  feature nbytes  536.89 MB | label nbytes   62.50 KB
        L1  id nbytes      0.00 Bytes | graph nbytes 0.00 Bytes
        L1  miss nbytes       1.40 MB | remote nbytes  231.44 MB
        L1  num nodes               0 | num samples           0
    [Step(average) Profiler Level 2 E3 S155]
        L2  shuffle     0.000000 | core sample  0.000000 | id remap        0.000000
        L2  graph copy  0.000004 | id copy      0.000000 | cache feat copy 0.004961
        L2  last layer sample time 0.000000 | size 0.000000
    [Step(average) Profiler Level 3 E3 S155]
        L3  khop sample coo  0.000000 | khop sort coo      0.000000 | khop count edge     0.000000 | khop compact edge 0.000000
        L3  walk sample coo  0.000000 | walk topk total    0.000000 | walk topk step1     0.000000 | walk topk step2   0.000000
        L3  walk topk step3  0.000000 | walk topk step4    0.000000 | walk topk step5     0.000000
        L3  walk topk step6  0.000000 | walk topk step7    0.000000
        L3  remap unique     0.000000 | remap populate     0.000000 | remap mapnode       0.000000 | remap mapedge     0.000000
        L3  cache get_index  0.000811 | cache copy_index   0.000000 | cache extract_miss  0.000000
        L3  cache copy_miss  0.000000 | cache combine_miss 0.000377 | cache combine cache 0.001095 | cache combine remote 0.002602
        L3  label extract  0.000439
    [Init Profiler Level 1]
        L1  init     7.4592 | sampler init     0.0000 | trainer init 213.2969
    [Init Profiler Level 2]
        L2  load ds         7.4543 | init queue           5.3978
        L2  presample       0.0000 | build interal ds     2.2514
        L2  build cache   205.6456
    [Init Profiler Level 3]
        L3  load dataset: mmap     7.4543 | copy         0.0000
        L3  dist queue: alloc      0.0019 | pin          5.3959 | push     0.0000
        L3  presample: init        0.0000
        L3  presample: sample      0.0000 | copy         0.0000
        L3  presample: count       0.0000 | sort         0.0000
        L3  presample: reset       0.0000 | get rank     0.0000
        L3  internal: cuda ctx     2.2513 | cuda stream     0.0000
|===========================================================================|
|                  PyTorch CUDA memory summary, device ID 0                 |
|---------------------------------------------------------------------------|
|            CUDA OOMs: 0            |        cudaMalloc retries: 0         |
|===========================================================================|
|        Metric         | Cur Usage  | Peak Usage | Tot Alloc  | Tot Freed  |
|---------------------------------------------------------------------------|
| Allocated memory      |   22856 KB |  402333 KB |  145078 MB |  145055 MB |
|       from large pool |   18182 KB |  398955 KB |  144000 MB |  143982 MB |
|       from small pool |    4674 KB |    7115 KB |    1077 MB |    1072 MB |
|---------------------------------------------------------------------------|
| Active memory         |   22856 KB |  402333 KB |  145078 MB |  145055 MB |
|       from large pool |   18182 KB |  398955 KB |  144000 MB |  143982 MB |
|       from small pool |    4674 KB |    7115 KB |    1077 MB |    1072 MB |
|---------------------------------------------------------------------------|
| GPU reserved memory   |  577536 KB |  577536 KB |  577536 KB |       0 B  |
|       from large pool |  569344 KB |  569344 KB |  569344 KB |       0 B  |
|       from small pool |    8192 KB |    8192 KB |    8192 KB |       0 B  |
|---------------------------------------------------------------------------|
| Non-releasable memory |   24247 KB |  368989 KB |  172651 MB |  172628 MB |
|       from large pool |   22778 KB |  367168 KB |  171420 MB |  171398 MB |
|       from small pool |    1469 KB |    3599 KB |    1231 MB |    1229 MB |
|---------------------------------------------------------------------------|
| Allocations           |      38    |      51    |   11583    |   11545    |
|       from large pool |       3    |      14    |    4576    |    4573    |
|       from small pool |      35    |      39    |    7007    |    6972    |
|---------------------------------------------------------------------------|
| Active allocs         |      39    |      51    |   11583    |   11544    |
|       from large pool |       3    |      14    |    4576    |    4573    |
|       from small pool |      36    |      39    |    7007    |    6971    |
|---------------------------------------------------------------------------|
| GPU reserved segments |      13    |      13    |      13    |       0    |
|       from large pool |       9    |       9    |       9    |       0    |
|       from small pool |       4    |       4    |       4    |       0    |
|---------------------------------------------------------------------------|
| Non-releasable allocs |      13    |      24    |    5700    |    5687    |
|       from large pool |       4    |      12    |    2614    |    2610    |
|       from small pool |       9    |      15    |    3086    |    3077    |
|---------------------------------------------------------------------------|
| Oversize allocations  |       0    |       0    |       0    |       0    |
|---------------------------------------------------------------------------|
| Oversize GPU segments |       0    |       0    |       0    |       0    |
|===========================================================================|

test_result:epoch_time:copy_time=0.1728
test_result:convert_time=0.0109
test_result:train_time=0.2641
test_result:epoch_time:train_total=0.2750
test_result:cache_percentage=0.3000
test_result:cache_hit_rate=1.0000
test_result:run_time=5.6862
